Traveling Salesman Problem/TSP_generados/Aleatorio1620390843_5.tsp
NAME: Aleatorio1620390843_5.tsp
COMMENT: Randomly generated scenario
TYPE: TSP
DIMENSION: 5
EDGE_WEIGHT_TYPE: ATT
NODE_COORD_SECTION
1 27.56 35.84
2 26.99 37.68
3 2.98 43.18
4 2.31 19.22
5 27.67 35.5
