Traveling Salesman Problem/TSP_generados/Aleatorio1620390843_5.opt.tour
NAME: Aleatorio1620390843_5.opt.tour
COMMENT: Optimal solution for Aleatorio1620390843_5 (81.02070083548759)
TYPE: TOUR
DIMENSION: 5
TOUR_SECTION
1 2 3 4 5
-1
EOF
